c This is UnifRandomKSATGenerator
c uniform random 3-SAT generated instance with: 
c clause length: 3 
c number variables: 20 
c number clauses: 85 
c clause to variable ratio: 4.27 
c random number generator name: SHA1PRNG 
c random number generator provider: SUN 
c random number generator seed: 2373861412029723456 
p cnf 20 85
-10 6 -7 0
-17 8 -13 0
-1 3 13 0
11 13 7 0
16 -17 -13 0
-19 -5 -8 0
-18 -3 -6 0
-2 10 -20 0
16 19 -7 0
-10 -20 7 0
-2 10 -12 0
-2 15 -16 0
10 -11 -8 0
9 -19 14 0
3 -14 5 0
-17 2 -3 0
-18 11 20 0
1 -15 -7 0
17 15 -8 0
8 -17 -3 0
-3 4 -13 0
9 -8 7 0
17 -5 13 0
18 11 -6 0
2 -5 -6 0
11 -5 -14 0
-5 20 13 0
3 -13 -14 0
-3 -12 -14 0
-18 4 20 0
9 -4 -14 0
10 -3 13 0
16 -4 -6 0
9 -20 14 0
3 -15 6 0
1 3 -12 0
-3 2 -14 0
-13 7 15 0
-10 2 -3 0
-17 19 7 0
-20 4 -15 0
1 -4 6 0
20 5 -14 0
-2 18 13 0
17 18 4 0
-20 12 -15 0
-3 -6 13 0
20 -7 -16 0
-3 -6 15 0
13 -15 -16 0
17 10 13 0
18 11 15 0
18 -15 -16 0
8 9 19 0
-3 -4 -7 0
-3 -6 -8 0
12 -7 15 0
8 17 -13 0
17 12 -7 0
16 2 -12 0
9 -13 -8 0
-10 -11 -15 0
-9 17 19 0
-3 -19 10 0
3 15 -16 0
8 5 -7 0
-6 13 7 0
3 13 -8 0
-9 16 -18 0
16 -2 7 0
-2 -18 -8 0
9 4 -16 0
-20 -4 14 0
19 6 -15 0
-14 7 -8 0
-1 2 7 0
8 5 6 0
-2 13 -7 0
17 -4 -12 0
-18 13 -16 0
-18 -19 13 0
-18 1 4 0
-1 -11 4 0
19 20 -5 0
9 -11 -20 0
